solution status: optimal solution found
objective value:                                    0
$_39__0_y                                          -5 	(obj:0)
$_39__0_z                                          19 	(obj:0)
$_37__0_y                                           3 	(obj:0)
$_37__0_z                                          19 	(obj:0)
$_38__0_z                                          19 	(obj:0)
$_22_y                                             -2 	(obj:0)
$_22_z                                             23 	(obj:0)
$_41__0_y                                          -5 	(obj:0)
$_41__0_z                                          23 	(obj:0)
$_36__0_y                                          -1 	(obj:0)
$_36__0_z                                          22 	(obj:0)
$_28_z                                             22 	(obj:0)
$_29_y                                             -1 	(obj:0)
$_29_z                                             18 	(obj:0)
$_42__0_y                                           5 	(obj:0)
$_42__0_z                                          23 	(obj:0)
$_40__0_y                                           1 	(obj:0)
$_40__0_z                                          19 	(obj:0)
$_26_y                                             -3 	(obj:0)
$_26_z                                             20 	(obj:0)
